\ This file has been generated by DOcplex
\ ENCODING=ISO-8859-1
\Problem name: random_problem.lp

Minimize
 obj: 0.008024817052 x0 + 0.004012408526 x1 + 0.002006204263 x2
      - 0.019175440783 x3 - 0.009587720391 x4 - 0.004793860196 x5 + [
      0.004384600694 x0^2 + 0.004384600694 x0*x1 + 0.002192300347 x0*x2
      + 0.009635716353 x0*x3 + 0.004817858176 x0*x4 + 0.002408929088 x0*x5
      + 0.001096150174 x1^2 + 0.001096150174 x1*x2 + 0.004817858176 x1*x3
      + 0.002408929088 x1*x4 + 0.001204464544 x1*x5 + 0.000274037543 x2^2
      + 0.002408929088 x2*x3 + 0.001204464544 x2*x4 + 0.000602232272 x2*x5
      + 0.008525363315 x3^2 + 0.008525363315 x3*x4 + 0.004262681657 x3*x5
      + 0.002131340829 x4^2 + 0.002131340829 x4*x5 + 0.000532835207 x5^2 ]/2
Subject To
 c0: 4 x0 + 2 x1 + x2 + 4 x3 + 2 x4 + x5 = 7

Bounds
 0 <= x0 <= 1
 0 <= x1 <= 1
 0 <= x2 <= 1
 0 <= x3 <= 1
 0 <= x4 <= 1
 0 <= x5 <= 1

Binaries
 x0 x1 x2 x3 x4 x5
End
